c FILE /home/rafael/Documents/HappySet/MIHS/inputs/happygen/output/graph_scale_free_k4_p0.2_v50_20241127_082424.txt
c SOURCE This is a scale-free graph formed for the happy graph colouring problem.
c DESCRIPTION It was generated using the problem generator of Rhyd Lewis
c
c GRAPH STATS
c Seed                             = 90867729
c Number of Nodes                  = 50
c Number of colours k              = 4
c Number of pre-assignments        = 10
c Number of links per new node     = 5
c Density                          = 0.191837
c 
c The degrees of nodes 1 to 50, respectively, are as follows 
c [27, 24, 23, 21, 21, 19, 17, 15, 14, 14, 12, 11, 10, 10, 10, 8, 8, 8, 8, 8, 8, 7, 7, 7, 7, 7, 
c  7, 7, 7, 7, 6, 6, 6, 6, 6, 6, 6, 6, 6, 6, 6, 5, 5, 5, 5, 5, 5, 5, 5, 5] 
c  
p edge 50 235 4
e 1 2
e 1 3
e 1 4
e 1 5
e 1 6
e 1 7
e 1 9
e 1 10
e 1 11
e 1 12
e 1 14
e 1 17
e 1 18
e 1 20
e 1 21
e 1 23
e 1 24
e 1 32
e 1 36
e 1 37
e 1 38
e 1 39
e 1 42
e 1 45
e 1 47
e 1 48
e 1 49
e 2 3
e 2 4
e 2 5
e 2 6
e 2 7
e 2 9
e 2 10
e 2 16
e 2 19
e 2 22
e 2 23
e 2 24
e 2 26
e 2 28
e 2 30
e 2 31
e 2 32
e 2 34
e 2 36
e 2 38
e 2 41
e 2 48
e 2 50
e 3 5
e 3 6
e 3 7
e 3 8
e 3 12
e 3 14
e 3 15
e 3 16
e 3 17
e 3 18
e 3 19
e 3 20
e 3 22
e 3 24
e 3 25
e 3 29
e 3 32
e 3 33
e 3 37
e 3 38
e 3 44
e 4 5
e 4 6
e 4 7
e 4 8
e 4 9
e 4 11
e 4 13
e 4 14
e 4 15
e 4 16
e 4 20
e 4 23
e 4 25
e 4 28
e 4 33
e 4 36
e 4 37
e 4 39
e 4 43
e 5 6
e 5 7
e 5 8
e 5 9
e 5 10
e 5 11
e 5 12
e 5 13
e 5 14
e 5 17
e 5 18
e 5 22
e 5 31
e 5 35
e 5 46
e 5 47
e 5 48
e 6 7
e 6 10
e 6 12
e 6 17
e 6 18
e 6 22
e 6 23
e 6 29
e 6 33
e 6 34
e 6 39
e 6 42
e 6 44
e 6 48
e 7 9
e 7 10
e 7 11
e 7 16
e 7 17
e 7 27
e 7 28
e 7 30
e 7 35
e 7 47
e 7 50
e 8 9
e 8 10
e 8 13
e 8 16
e 8 25
e 8 26
e 8 27
e 8 30
e 8 36
e 8 43
e 8 44
e 8 47
e 9 12
e 9 14
e 9 22
e 9 28
e 9 37
e 9 38
e 9 40
e 9 45
e 10 11
e 10 18
e 10 19
e 10 24
e 10 27
e 10 28
e 10 45
e 10 46
e 11 19
e 11 21
e 11 29
e 11 31
e 11 32
e 11 34
e 11 47
e 12 13
e 12 25
e 12 31
e 12 34
e 12 35
e 12 37
e 13 15
e 13 17
e 13 23
e 13 30
e 13 34
e 13 43
e 14 15
e 14 19
e 14 20
e 14 26
e 14 40
e 15 16
e 15 21
e 15 25
e 15 29
e 15 36
e 15 46
e 16 31
e 16 50
e 17 29
e 17 49
e 18 26
e 18 41
e 18 43
e 19 27
e 19 32
e 19 33
e 20 21
e 20 33
e 20 35
e 20 46
e 21 25
e 21 39
e 21 40
e 21 45
e 22 35
e 22 45
e 23 24
e 23 50
e 24 33
e 24 44
e 25 26
e 26 42
e 26 50
e 27 32
e 27 39
e 27 40
e 28 38
e 28 42
e 29 30
e 29 49
e 30 41
e 30 46
e 31 49
e 34 42
e 35 43
e 36 48
e 37 40
e 38 41
e 39 44
e 40 41
e 41 49
n 9 1
n 11 4
n 23 1
n 26 2
n 31 4
n 35 3
n 37 1
n 43 3
n 44 1
n 48 1
